
  12   12
  10   10   10   10   10   10   10   10   10   10   10   10

   0   0   0   0   0   0   0   0   0   0   0   0   0   3 2 4 11 
   9   0   0   0   0   5   0   0   0   0   0   0   0   3 10 9 3 
   9   0   0   0   0   0   1   1   1   1   1   1   0   4 8 7 6 5 
   8   0   0   1   0   0   0   0   0   0   7   0   0   2 6 5 
   6   1   0   0   1   0   0   6   0   0   0   0   0   1 12
  10   0   1   0   0   0   0   5   0   6   0   0   1   1 12
   2   9   0   0   6   0   0   0   0   0   0   0   0   1 12
   1   0   0   0   0   0   6   0   0   0   6   0   0   1 12
   7   0   6   0   6   0   0   0   0   0   0   7   0   1 12
   9   0   8   4   7   0   0   0   9   8   0   8   9   1 12
   6   0   0  10   0   0   8   8   0   0   6   4   0   1 12
   0   0   0   0   0   0   0   0   0   0   0   0   0   0 
